CPXPARAM_MIP_Tolerances_MIPGap                   0
Tried aggregator 1 time.
MIP Presolve eliminated 232 rows and 5 columns.
MIP Presolve modified 1223 coefficients.
Reduced MIP has 2190 rows, 1234 columns, and 6320 nonzeros.
Reduced MIP has 1007 binaries, 0 generals, 0 SOSs, and 0 indicators.
Presolve time = 0.02 sec. (4.76 ticks)
Found incumbent of value 42.000000 after 0.02 sec. (11.80 ticks)
Probing time = 0.02 sec. (3.11 ticks)
Tried aggregator 1 time.
Reduced MIP has 2190 rows, 1234 columns, and 6320 nonzeros.
Reduced MIP has 1007 binaries, 0 generals, 0 SOSs, and 0 indicators.
Presolve time = 0.00 sec. (3.58 ticks)
Probing time = 0.00 sec. (3.04 ticks)
Clique table members: 769.
MIP emphasis: balance optimality and feasibility.
MIP search method: dynamic search.
Parallel mode: deterministic, using up to 8 threads.
Root relaxation solution time = 0.03 sec. (11.64 ticks)

        Nodes                                         Cuts/
   Node  Left     Objective  IInf  Best Integer    Best Bound    ItCnt     Gap

*     0+    0                           42.0000        5.0000            88.10%
*     0+    0                           36.0000        5.0000            86.11%
      0     0        5.0000    30       36.0000        5.0000      312   86.11%
      0     0        5.2008    37       36.0000      Cuts: 83      472   85.55%
      0     0       18.0000    65       36.0000     Cuts: 250      603   50.00%
      0     0       18.0000    49       36.0000      Cuts: 15      621   50.00%
*     0+    0                           19.0000       18.0000             5.26%
      0     0        cutoff             19.0000                    622    0.00%
Elapsed time = 0.22 sec. (77.63 ticks, tree = 0.01 MB, solutions = 3)

Clique cuts applied:  162
Implied bound cuts applied:  6
Flow cuts applied:  1
Mixed integer rounding cuts applied:  26

Root node processing (before b&c):
  Real time             =    0.22 sec. (77.73 ticks)
Parallel b&c, 8 threads:
  Real time             =    0.00 sec. (0.00 ticks)
  Sync time (average)   =    0.00 sec.
  Wait time (average)   =    0.00 sec.
                          ------------
Total (root+branch&cut) =    0.22 sec. (77.73 ticks)
